
--- Job Ex6-3-integer.gms Start 09/28/20 09:56:20 32.2.0 rc62c018 WEX-WEI x86 64bit/MS Windows
--- Applying:
    C:\GAMS\32\gmsprmNT.txt
--- GAMS Parameters defined
    Input "C:\Users\Sharp Student\Documents\WRSA\GAMS\GitHub\CEE-6410-Rosenberg\Lectures\Ex6-3-integer.gms"
    PageWidth 80
    PageSize 0
    PageContr 3
    Action CE
    ScrDir "C:\Users\Sharp Student\Documents\WRSA\GAMS\GitHub\CEE-6410-Campana\225a\"
    SysDir C:\GAMS\32\
    WorkDir "C:\Users\Sharp Student\Documents\WRSA\GAMS\GitHub\CEE-6410-Campana\"
    LogOption 3
    DFormat 0
    TFormat 0
    ErrorLog 99
    IDE 1
GAMS 32.2.0   Copyright (C) 1987-2020 GAMS Development. All rights reserved
Licensee: Small MUD - 5 User License                     G200622/0001AP-GEN
          Utah State University, Utah Water Research Laboratory      DC7087
          C:\GAMS\32\gamslice.txt
--- Starting compilation
--- Ex6-3-integer.gms(80) 3 Mb
--- Starting execution: elapsed 0:00:00.004
--- Generating MIP model WatSupplyRelaxed
--- Ex6-3-integer.gms(73) 4 Mb
---   10 rows  5 columns  18 non-zeroes
---   2 discrete-columns
--- Executing CPLEX (Solvelink=2): elapsed 0:00:00.048

IBM ILOG CPLEX   32.2.0 rc62c018 Released Aug 26, 2020 WEI x86 64bit/MS Window
--- GAMS/Cplex Link licensed for continuous and discrete problems.
Cplex 12.10.0.0

Reading data...
Starting Cplex...
Space for names approximately 0.00 Mb
Use option 'names no' to turn use of names off
Version identifier: 12.10.0.0 | 2019-11-26 | 843d4de2ae
CPXPARAM_Advance                                 0
CPXPARAM_Simplex_Display                         2
CPXPARAM_Threads                                 1
CPXPARAM_Parallel                                1
CPXPARAM_MIP_Display                             4
CPXPARAM_MIP_Tolerances_AbsMIPGap                0
CPXPARAM_WorkDir                                 "C:\Users\Sharp Student\Documents\WRSA\GAMS\GitHub\CEE-6410-Campana\225a\"
Found incumbent of value 330000.000000 after 0.03 sec. (0.00 ticks)
Tried aggregator 1 time.
MIP Presolve eliminated 6 rows and 1 columns.
Reduced MIP has 4 rows, 4 columns, and 8 nonzeros.
Reduced MIP has 2 binaries, 0 generals, 0 SOSs, and 0 indicators.
Presolve time = 0.03 sec. (0.01 ticks)
Probing time = 0.00 sec. (0.00 ticks)
Tried aggregator 2 times.
MIP Presolve modified 1 coefficients.
Aggregator did 1 substitutions.
Reduced MIP has 3 rows, 3 columns, and 6 nonzeros.
Reduced MIP has 2 binaries, 0 generals, 0 SOSs, and 0 indicators.
Presolve time = 0.00 sec. (0.01 ticks)
Probing time = 0.00 sec. (0.00 ticks)
Tried aggregator 1 time.
Reduced MIP has 3 rows, 3 columns, and 6 nonzeros.
Reduced MIP has 2 binaries, 1 generals, 0 SOSs, and 0 indicators.
Presolve time = 0.00 sec. (0.00 ticks)
Probing time = 0.00 sec. (0.00 ticks)
Clique table members: 1.
MIP emphasis: balance optimality and feasibility.
MIP search method: dynamic search.
Parallel mode: none, using 1 thread.
Tried aggregator 1 time.
LP Presolve eliminated 2 rows and 2 columns.
Aggregator did 1 substitutions.
All rows and columns eliminated.
Presolve time = 0.05 sec. (0.00 ticks)
Initializing dual steep norms . . .
Root relaxation solution time = 0.05 sec. (0.00 ticks)

        Nodes                                         Cuts/
   Node  Left     Objective  IInf  Best Integer    Best Bound    ItCnt     Gap

*     0+    0                       330000.0000   240000.0000            27.27%
Found incumbent of value 330000.000000 after 0.14 sec. (0.03 ticks)
      0     0        cutoff         330000.0000                      0    0.00%

Root node processing (before b&c):
  Real time             =    0.16 sec. (0.03 ticks)
Sequential b&c:
  Real time             =    0.00 sec. (0.00 ticks)
                          ------------
Total (root+branch&cut) =    0.16 sec. (0.03 ticks)
MIP status(101): integer optimal solution
Cplex Time: 0.17sec (det. 0.03 ticks)
Fixing integer variables, and solving final LP...
Version identifier: 12.10.0.0 | 2019-11-26 | 843d4de2ae
CPXPARAM_Advance                                 2
CPXPARAM_Simplex_Display                         2
CPXPARAM_Threads                                 1
CPXPARAM_Parallel                                1
CPXPARAM_MIP_Display                             4
CPXPARAM_MIP_Tolerances_AbsMIPGap                0
CPXPARAM_WorkDir                                 "C:\Users\Sharp Student\Documents\WRSA\GAMS\GitHub\CEE-6410-Campana\225a\"
Tried aggregator 1 time.
LP Presolve eliminated 10 rows and 5 columns.
All rows and columns eliminated.
Presolve time = 0.00 sec. (0.00 ticks)
Fixed MIP status(1): optimal
Cplex Time: 0.02sec (det. 0.01 ticks)

Proven optimal solution.

MIP Solution:       330000.000000    (0 iterations, 0 nodes)
Final Solve:        330000.000000    (0 iterations)

Best possible:      330000.000000
Absolute gap:            0.000000
Relative gap:            0.000000

--- Reading solution for model WatSupplyRelaxed
--- Executing after solve: elapsed 0:00:00.309
--- Ex6-3-integer.gms(78) 4 Mb
--- GDX File C:\Users\Sharp Student\Documents\WRSA\GAMS\GitHub\CEE-6410-Campana\Ex6-3-integer.gdx
--- Ex6-3-integer.gms(80) 4 Mb
GDX2XLS          32.2.0 rc62c018 Released Aug 26, 2020 WEI x86 64bit/MS Window
Output file: C:\Users\Sharp Student\Documents\WRSA\GAMS\GitHub\CEE-6410-Campana\Ex6-3-integer.xlsx
*** Status: Normal completion
--- Job Ex6-3-integer.gms Stop 09/28/20 09:56:21 elapsed 0:00:01.913
